p tw 20 87
e 0 7
e 0 8
e 0 12
e 0 13
e 0 14
e 0 17
e 0 18
e 0 19
e 1 4
e 1 6
e 1 8
e 1 9
e 1 11
e 1 12
e 1 15
e 1 19
e 2 7
e 2 8
e 2 9
e 2 10
e 2 11
e 2 12
e 2 14
e 2 16
e 2 17
e 2 19
e 3 4
e 3 5
e 3 7
e 3 9
e 3 12
e 3 14
e 3 16
e 3 17
e 3 18
e 4 5
e 4 9
e 4 10
e 4 13
e 4 17
e 4 19
e 5 6
e 5 9
e 5 12
e 5 13
e 5 14
e 5 15
e 5 16
e 5 19
e 6 7
e 6 10
e 6 11
e 6 14
e 6 15
e 6 16
e 6 18
e 6 19
e 7 9
e 7 14
e 7 15
e 7 16
e 7 18
e 7 19
e 8 12
e 8 13
e 8 15
e 8 16
e 8 17
e 8 18
e 8 19
e 9 13
e 9 14
e 9 15
e 9 16
e 9 19
e 10 16
e 10 18
e 10 19
e 11 14
e 11 18
e 12 13
e 12 15
e 12 19
e 13 17
e 15 16
e 15 19
e 17 18
